language ESSENCE' 1.0
$ minion Nodes: 9
$ minion TotalTime: 0.00222
$ Savile Row TotalTime: 1.104
letting b_tuple1 be 0
letting b_tuple2 be 3
letting c_tuple1 be 1
letting c_tuple3_tuple2_tuple1 be 3
letting c_tuple3_tuple2_tuple2 be true
letting c_tuple3_tuple1_SetExplicitVarSize_tuple1 be [true, true;int(1..2)]
letting c_tuple3_tuple1_SetExplicitVarSize_tuple2 be [3, 4;int(1..2)]
letting b_tuple3_SetExplicitVarSizeWithDefault be [2, 2;int(1..2)]
letting c_tuple2_SetExplicitVarSize_tuple2 be [3, 3;int(1..2)]
letting c_tuple2_SetExplicitVarSize_tuple1 be [false, false;int(1..2)]
